p tw 32 38
1 2
2 13
3 4
3 25
4 5
4 8
4 17
4 20
4 22
5 6
6 7
7 25
8 9
9 10
10 11
10 14
11 12
12 25
13 24
14 15
15 16
16 25
17 18
18 19
19 25
20 21
21 25
22 23
23 25
24 27
25 26
27 28
28 29
29 30
29 31
30 31
31 32
32 3
